StudentsNr = 10;
InstructorsNr = 46;
DaysNr = 1;
SlotsPerDay = 15;
AvailabilitySlotsLenght = 5;
RoomNr = 2;
ProgrammNr = 1;
DegreeNr = 2;
RolesNr = 3;
CoursesNr = 5;
InstructorsProgramm = [{1}, {1}, {1}, {1}, {1}, {1}, {1}, {1}, {1}, {1}, {1}, {1}, {1}, {1}, {1}, {1}, {1}, {1}, {1}, {1}, {1}, {1}, {1}, {1}, {1}, {1}, {1}, {1}, {1}, {1}, {1}, {1}, {1}, {1}, {1}, {1}, {1}, {1}, {1}, {1}, {1}, {1}, {1}, {1}, {1}, {1}];
InstructorRolesPerProgramm = [|{1, 3, 4, 6, 8, 10, 11, 12, 14, 16, 20, 23, 26, 27, 28, 29, 30, 31, 33, 34, 35, 36, 37, 38, 40, 41, 45}, {4, 5, 7, 8, 11, 14, 18, 24, 26, 27, 28, 30, 32, 33, 35, 36, 40, 41, 43}, {4, 6, 7, 11, 12, 13, 15, 16, 19, 20, 24, 29, 31, 32, 36, 37, 45, 46}|];
InstructorsAvailability = [|1, 1, 1, |1, 0, 1, |0, 0, 1, |1, 1, 1, |1, 1, 0, |1, 1, 1, |0, 1, 1, |0, 0, 1, |1, 1, 1, |1, 1, 1, |0, 1, 1, |1, 1, 1, |0, 1, 1, |1, 1, 1, |0, 1, 1, |1, 1, 1, |0, 1, 0, |0, 1, 1, |1, 1, 1, |0, 0, 1, |0, 1, 0, |0, 0, 1, |1, 0, 0, |1, 1, 1, |1, 1, 1, |1, 1, 1, |0, 0, 1, |0, 1, 1, |0, 0, 0, |0, 1, 1, |1, 1, 0, |1, 0, 0, |0, 1, 1, |0, 0, 0, |0, 0, 1, |1, 1, 0, |0, 1, 1, |1, 0, 0, |1, 0, 1, |1, 1, 1, |1, 1, 1, |0, 0, 0, |0, 0, 1, |0, 1, 1, |1, 1, 1, |1, 1, 0|];
StudentsProgramm = [1, 1, 1, 1, 1, 1, 1, 1, 1, 1];
StudentsDegree = [1, 1, 2, 2, 1, 1, 1, 1, 1, 2];
StudentsSupervisorId = [22, 20, 1, 4, 8, 23, 23, 41, 46, 7];
StudentsCourseIds = [{2, 3, 4, 5}, {1, 3, 4, 5}, {2, 5}, {2, 5}, {1, 2, 3, 5}, {1, 3, 4, 5}, {1, 2, 3, 5}, {2, 3, 4, 5}, {1, 2, 3, 4}, {4, 5}];
StudentsAvailability = [|1, 1, 1, |1, 1, 1, |0, 1, 1, |0, 1, 1, |0, 1, 1, |1, 1, 1, |0, 1, 1, |0, 1, 1, |0, 0, 0, |0, 1, 1|];
TheoryticalMinCard = [0, 0, 0, 0, 0, 0, 0, 0, 0, 0];
CoursesInstructorIds = [{1, 2, 3, 4, 5, 7, 8, 12, 13, 14, 18, 22, 23, 24, 25, 26, 27, 29, 30, 33, 34, 35, 37, 38, 39, 41, 42, 44, 45, 46}, {3, 4, 6, 13, 14, 20, 21, 29, 33}, {1, 2, 3, 4, 5, 6, 7, 11, 12, 14, 18, 21, 22, 24, 26, 32, 37, 39, 44}, {2, 3, 4, 8, 11, 13, 17, 19, 20, 21, 22, 28, 32, 43, 46}, {1, 2, 3, 4, 5, 9, 10, 13, 15, 19, 20, 21, 23, 25, 28, 33, 34, 37, 38, 40, 42, 43, 44, 45}];
RolesDemands = [7, 15, 12];
RolesContinuity = [2, 1];
ExamLen = [2, 2, 2, 2, 2, 2, 2, 2, 2, 2];
LunchTsMinLen = 1;
LunchStarts = [7..8];
SupervisorAvailable = 5;
OptimalLunchLenght = [2, 1];
OptimalStartTs = [2, 1];
OptimalFinishTs = [1, 14];
MinimizeRooms = 400;
RolesSoftContinuity = [|1, 2, 3|2, 3, 3|];
SameDegreeInRoom = 0;
Mergeability = 1;
